WARNING: for repeatability, setting FPU to use double precision
============================[ Problem Statistics ]=============================
|                                                                             |
|  Number of variables:           100                                         |
|  Number of clauses:             449                                         |
|  Parse time:                   0.00 s                                       |
|  Eliminated clauses:           0.00 Mb                                      |
|  Simplification time:          0.00 s                                       |
|                                                                             |
============================[ Search Statistics ]==============================
| Conflicts |          ORIGINAL         |          LEARNT          | Progress |
|           |    Vars  Clauses Literals |    Limit  Clauses Lit/Cl |          |
===============================================================================
|       100 |      99      447     1348 |      163      100      7 |  0.010 % |
|       250 |      99      447     1348 |      180      169      6 |  0.011 % |
===============================================================================
restarts              : 3
conflicts             : 274            (inf /sec)
decisions             : 335            (0.00 % random) (inf /sec)
propagations          : 6510           (inf /sec)
conflict literals     : 1782           (17.80 % deleted)
Memory used           : 13.00 MB
CPU time              : 0 s

SATISFIABLE
